p cnf 7230 16
-1560 -4588 -5126 0
-2110 -4586 -5124 0
1560 -5127 0
2110 -5125 0
5130 5131 0
4618 -5131 0
-4618 -5130 0
5128 5129 0
4606 -5129 0
-4606 -5128 0
5126 5127 0
5124 5125 0
4588 -5127 0
4586 -5125 0
-4620 5133 0
4620 -5133 0
